
  15    0


   0   9 2 3 4 5 10 11 12 13 14 
   6   2 9 6 
   1   2 8 6 
   4   2 7 6 
   6   1 7 
  10   1 15
   7   1 15
   3   1 15
  10   1 15
   2   1 15
   8   1 15
   2   1 15
   5   1 15
   2   1 15
   0   0 
